<?xml version="1.0" encoding="UTF-8"?><osil xmlns="os.optimizationservices.org" xmlns:xsi="http://www.w3.org/2001/XMLSchema-instance" xsi:schemaLocation="os.optimizationservices.org http://www.optimizationservices.org/schemas/2.0/OSiL.xsd"><instanceHeader><name>ex14_1_4</name></instanceHeader><instanceData><variables numberOfVariables="3"><var name="x1" lb=".25" ub="1"/><var name="x2" lb="1.5" ub="6.28"/><var name="x3" lb="-INF"/></variables><objectives><obj maxOrMin="min" name="defObj_objvar" numberOfObjCoef="1"><coef idx="2">1</coef></obj></objectives><constraints numberOfConstraints="4"><con name="e1" ub="0"/><con name="e2" ub="2.5019678106022"/><con name="e3" ub="0"/><con name="e5" ub="-2.5019678106022"/></constraints><linearConstraintCoefficients numberOfValues="6"><start><el>0</el><el>1</el><el>3</el><el>4</el><el>6</el></start><colIdx><el>2</el><el>1</el><el mult="2">2</el><el>1</el><el>2</el></colIdx><value><el>-1</el><el>.865255957591193</el><el mult="2">-1</el><el>-.865255957591193</el><el>-1</el></value></linearConstraintCoefficients><nonlinearExpressions numberOfNonlinearExpressions="4"><nl idx="0"><sum><product><sin><product><variable idx="0"/><variable idx="1"/></product></sin><number value=".5"/></product><variable idx="0" coef="-.5"/><variable idx="1" coef="-7.95774703703634e-2"/></sum></nl><nl idx="1"><sum><product><exp><variable idx="0" coef="2"/></exp><number value=".920422529629637"/></product><variable idx="0" coef="-5.4365636"/></sum></nl><nl idx="2"><sum><product><sin><product><variable idx="0"/><variable idx="1"/></product></sin><number value="-.5"/></product><variable idx="0" coef=".5"/><variable idx="1" coef="7.95774703703634e-2"/></sum></nl><nl idx="3"><sum><product><exp><variable idx="0" coef="2"/></exp><number value="-.920422529629637"/></product><variable idx="0" coef="5.4365636"/></sum></nl></nonlinearExpressions></instanceData></osil>